graph_generation/data/cp/tcsp/1356872604_Delhi_IN_60_120_1_task_random.dzn
nodes = 96;
edges = 460;
starts = [1, 1, 2, 3, 3, 4, 4, 5, 6, 6, 7, 7, 7, 8, 8, 9, 10, 11, 11, 11, 12, 12, 13, 13, 13, 14, 14, 15, 15, 15, 16, 17, 17, 18, 19, 19, 19, 20, 20, 20, 21, 21, 21, 22, 22, 22, 23, 23, 23, 24, 24, 24, 25, 25, 25, 25, 26, 26, 26, 27, 27, 27, 28, 28, 28, 29, 30, 30, 30, 31, 31, 31, 32, 32, 32, 33, 33, 34, 34, 35, 35, 36, 37, 37, 37, 37, 38, 38, 38, 39, 40, 40, 40, 41, 41, 41, 42, 42, 42, 43, 43, 44, 44, 45, 45, 46, 46, 47, 47, 47, 48, 48, 48, 49, 49, 50, 50, 50, 51, 51, 52, 52, 53, 53, 53, 54, 55, 55, 55, 56, 56, 56, 57, 58, 59, 59, 60, 60, 61, 61, 61, 62, 62, 62, 63, 63, 63, 64, 64, 65, 65, 65, 66, 66, 66, 66, 67, 67, 67, 68, 68, 68, 69, 69, 70, 70, 71, 71, 71, 72, 72, 72, 73, 73, 74, 74, 75, 75, 76, 76, 76, 77, 77, 77, 78, 78, 78, 79, 79, 79, 80, 80, 81, 81, 81, 82, 82, 82, 83, 83, 84, 84, 84, 85, 85, 85, 86, 86, 86, 87, 88, 89, 89, 90, 90, 91, 91, 91, 92, 92, 93, 93, 93, 94, 95, 95, 95, 96, 96, 96, 72, 96, 96, 85, 86, 42, 57, 87, 55, 89, 66, 91, 95, 31, 33, 39, 75, 16, 32, 33, 20, 43, 21, 80, 85, 64, 71, 22, 41, 80, 18, 12, 19, 9, 17, 20, 22, 12, 19, 24, 13, 22, 24, 15, 19, 21, 25, 75, 76, 20, 21, 26, 23, 48, 49, 50, 24, 43, 85, 59, 60, 63, 44, 61, 63, 38, 44, 59, 63, 8, 32, 37, 11, 31, 68, 9, 11, 71, 82, 37, 86, 40, 31, 35, 38, 86, 29, 37, 95, 62, 36, 62, 90, 15, 72, 96, 4, 17, 84, 8, 26, 28, 30, 46, 70, 45, 78, 48, 50, 78, 25, 47, 64, 25, 87, 25, 47, 53, 55, 83, 10, 61, 50, 56, 79, 69, 5, 51, 88, 53, 60, 76, 58, 6, 27, 30, 27, 56, 28, 52, 76, 39, 40, 67, 27, 28, 30, 14, 48, 66, 67, 68, 7, 65, 67, 68, 62, 65, 66, 32, 65, 66, 54, 79, 45, 77, 14, 34, 74, 1, 41, 84, 74, 81, 71, 73, 23, 49, 23, 56, 61, 70, 78, 79, 46, 47, 77, 53, 69, 77, 13, 15, 73, 82, 84, 34, 81, 83, 42, 82, 42, 72, 81, 3, 13, 26, 3, 35, 37, 51, 89, 6, 88, 40, 91, 7, 90, 92, 91, 93, 92, 94, 95, 93, 7, 38, 93, 1, 2, 41];
ends = [72, 96, 96, 85, 86, 42, 57, 87, 55, 89, 66, 91, 95, 31, 33, 39, 75, 16, 32, 33, 20, 43, 21, 80, 85, 64, 71, 22, 41, 80, 18, 12, 19, 9, 17, 20, 22, 12, 19, 24, 13, 22, 24, 15, 19, 21, 25, 75, 76, 20, 21, 26, 23, 48, 49, 50, 24, 43, 85, 59, 60, 63, 44, 61, 63, 38, 44, 59, 63, 8, 32, 37, 11, 31, 68, 9, 11, 71, 82, 37, 86, 40, 31, 35, 38, 86, 29, 37, 95, 62, 36, 62, 90, 15, 72, 96, 4, 17, 84, 8, 26, 28, 30, 46, 70, 45, 78, 48, 50, 78, 25, 47, 64, 25, 87, 25, 47, 53, 55, 83, 10, 61, 50, 56, 79, 69, 5, 51, 88, 53, 60, 76, 58, 6, 27, 30, 27, 56, 28, 52, 76, 39, 40, 67, 27, 28, 30, 14, 48, 66, 67, 68, 7, 65, 67, 68, 62, 65, 66, 32, 65, 66, 54, 79, 45, 77, 14, 34, 74, 1, 41, 84, 74, 81, 71, 73, 23, 49, 23, 56, 61, 70, 78, 79, 46, 47, 77, 53, 69, 77, 13, 15, 73, 82, 84, 34, 81, 83, 42, 82, 42, 72, 81, 3, 13, 26, 3, 35, 37, 51, 89, 6, 88, 40, 91, 7, 90, 92, 91, 93, 92, 94, 95, 93, 7, 38, 93, 1, 2, 41, 1, 1, 2, 3, 3, 4, 4, 5, 6, 6, 7, 7, 7, 8, 8, 9, 10, 11, 11, 11, 12, 12, 13, 13, 13, 14, 14, 15, 15, 15, 16, 17, 17, 18, 19, 19, 19, 20, 20, 20, 21, 21, 21, 22, 22, 22, 23, 23, 23, 24, 24, 24, 25, 25, 25, 25, 26, 26, 26, 27, 27, 27, 28, 28, 28, 29, 30, 30, 30, 31, 31, 31, 32, 32, 32, 33, 33, 34, 34, 35, 35, 36, 37, 37, 37, 37, 38, 38, 38, 39, 40, 40, 40, 41, 41, 41, 42, 42, 42, 43, 43, 44, 44, 45, 45, 46, 46, 47, 47, 47, 48, 48, 48, 49, 49, 50, 50, 50, 51, 51, 52, 52, 53, 53, 53, 54, 55, 55, 55, 56, 56, 56, 57, 58, 59, 59, 60, 60, 61, 61, 61, 62, 62, 62, 63, 63, 63, 64, 64, 65, 65, 65, 66, 66, 66, 66, 67, 67, 67, 68, 68, 68, 69, 69, 70, 70, 71, 71, 71, 72, 72, 72, 73, 73, 74, 74, 75, 75, 76, 76, 76, 77, 77, 77, 78, 78, 78, 79, 79, 79, 80, 80, 81, 81, 81, 82, 82, 82, 83, 83, 84, 84, 84, 85, 85, 85, 86, 86, 86, 87, 88, 89, 89, 90, 90, 91, 91, 91, 92, 92, 93, 93, 93, 94, 95, 95, 95, 96, 96, 96];
weights = [92, 51, 98, 72, 76, 10, 35, 9, 201, 52, 40, 39, 78, 28, 20, 109, 137, 58, 16, 13, 58, 57, 49, 151, 51, 42, 91, 49, 53, 9, 53, 160, 63, 100, 63, 160, 52, 58, 160, 22, 49, 159, 31, 49, 52, 159, 168, 32, 32, 22, 31, 49, 168, 151, 36, 27, 49, 80, 81, 9, 50, 59, 30, 32, 31, 87, 28, 24, 30, 28, 21, 127, 16, 21, 85, 214, 13, 34, 90, 86, 87, 43, 127, 86, 25, 43, 87, 25, 32, 18, 43, 184, 26, 53, 37, 5, 10, 59, 88, 254, 80, 30, 28, 28, 27, 28, 65, 67, 55, 66, 151, 67, 65, 36, 150, 27, 55, 45, 9, 190, 67, 104, 45, 57, 65, 25, 7, 9, 51, 57, 59, 64, 71, 20, 9, 24, 50, 59, 32, 104, 47, 18, 184, 153, 59, 31, 30, 42, 65, 55, 62, 18, 40, 55, 108, 112, 153, 62, 108, 85, 18, 112, 25, 95, 27, 72, 91, 34, 27, 92, 37, 39, 156, 65, 27, 156, 32, 169, 32, 64, 47, 72, 50, 51, 65, 66, 50, 65, 95, 51, 151, 9, 65, 67, 78, 90, 67, 92, 137, 92, 88, 39, 78, 72, 51, 81, 76, 87, 43, 7, 201, 52, 201, 26, 39, 39, 39, 46, 46, 111, 111, 37, 37, 37, 78, 32, 37, 51, 98, 5, 92, 51, 98, 72, 76, 10, 35, 9, 201, 52, 40, 39, 78, 28, 20, 109, 137, 58, 16, 13, 58, 57, 49, 151, 51, 42, 91, 49, 53, 9, 53, 160, 63, 100, 63, 160, 52, 58, 160, 22, 49, 159, 31, 49, 52, 159, 168, 32, 32, 22, 31, 49, 168, 151, 36, 27, 49, 80, 81, 9, 50, 59, 30, 32, 31, 87, 28, 24, 30, 28, 21, 127, 16, 21, 85, 214, 13, 34, 90, 86, 87, 43, 127, 86, 25, 43, 87, 25, 32, 18, 43, 184, 26, 53, 37, 5, 10, 59, 88, 254, 80, 30, 28, 28, 27, 28, 65, 67, 55, 66, 151, 67, 65, 36, 150, 27, 55, 45, 9, 190, 67, 104, 45, 57, 65, 25, 7, 9, 51, 57, 59, 64, 71, 20, 9, 24, 50, 59, 32, 104, 47, 18, 184, 153, 59, 31, 30, 42, 65, 55, 62, 18, 40, 55, 108, 112, 153, 62, 108, 85, 18, 112, 25, 95, 27, 72, 91, 34, 27, 92, 37, 39, 156, 65, 27, 156, 32, 169, 32, 64, 47, 72, 50, 51, 65, 66, 50, 65, 95, 51, 151, 9, 65, 67, 78, 90, 67, 92, 137, 92, 88, 39, 78, 72, 51, 81, 76, 87, 43, 7, 201, 52, 201, 26, 39, 39, 39, 46, 46, 111, 111, 37, 37, 37, 78, 32, 37, 51, 98, 5];
start = 53;
end= 66;
tasks = 15;
task = array2d(1..tasks, 1..nodes, [0, 0, 0, 0, 0, 1, 0, 0, 0, 0, 0, 0, 0, 0, 0, 0, 0, 0, 0, 0, 0, 0, 0, 0, 0, 0, 0, 0, 0, 0, 0, 0, 0, 0, 0, 0, 0, 0, 0, 0, 0, 0, 0, 0, 0, 0, 0, 0, 0, 0, 0, 0, 0, 0, 0, 0, 0, 0, 0, 0, 0, 0, 0, 0, 0, 0, 0, 0, 0, 0, 0, 0, 0, 0, 0, 0, 0, 0, 0, 0, 0, 0, 0, 0, 0, 0, 0, 0, 0, 0, 0, 0, 0, 0, 0, 0, 0, 0, 0, 0, 0, 0, 1, 0, 0, 0, 0, 0, 0, 0, 0, 0, 0, 0, 0, 0, 0, 0, 0, 0, 0, 0, 0, 0, 0, 0, 0, 0, 0, 0, 0, 0, 0, 0, 0, 0, 0, 0, 0, 0, 0, 0, 0, 0, 0, 0, 0, 0, 0, 0, 0, 0, 0, 0, 0, 0, 0, 0, 0, 0, 0, 0, 0, 0, 0, 0, 0, 0, 0, 0, 0, 0, 0, 0, 0, 0, 0, 0, 0, 0, 0, 0, 0, 0, 0, 0, 0, 0, 0, 0, 0, 0, 0, 0, 0, 0, 0, 0, 0, 0, 1, 0, 0, 0, 0, 0, 0, 0, 0, 0, 0, 0, 0, 0, 0, 0, 0, 0, 0, 0, 0, 0, 0, 0, 0, 0, 0, 0, 0, 0, 0, 0, 0, 0, 0, 0, 0, 0, 0, 0, 0, 0, 0, 0, 0, 0, 0, 0, 0, 0, 0, 0, 0, 0, 0, 0, 0, 0, 0, 0, 0, 0, 0, 0, 0, 0, 0, 0, 0, 0, 0, 0, 0, 0, 0, 0, 0, 0, 0, 0, 0, 0, 0, 0, 0, 0, 0, 0, 0, 0, 0, 0, 0, 0, 0, 0, 0, 1, 0, 0, 0, 0, 0, 0, 0, 0, 0, 0, 0, 0, 0, 0, 0, 0, 0, 0, 0, 0, 0, 0, 0, 0, 0, 0, 0, 0, 0, 0, 0, 0, 0, 0, 0, 0, 0, 0, 0, 0, 0, 0, 0, 0, 0, 0, 0, 0, 0, 0, 0, 0, 0, 0, 0, 0, 0, 0, 0, 0, 0, 0, 0, 0, 0, 0, 0, 0, 0, 0, 0, 0, 0, 0, 0, 0, 0, 0, 0, 0, 0, 0, 0, 0, 0, 0, 0, 0, 0, 0, 0, 0, 0, 0, 0, 0, 0, 0, 0, 0, 0, 1, 0, 0, 0, 0, 0, 0, 0, 0, 0, 0, 0, 0, 0, 0, 0, 0, 0, 0, 0, 0, 0, 0, 0, 0, 0, 0, 0, 0, 0, 0, 0, 0, 0, 0, 0, 0, 0, 0, 0, 0, 0, 0, 0, 0, 0, 0, 0, 0, 0, 0, 0, 0, 0, 0, 0, 0, 0, 0, 0, 0, 0, 0, 0, 0, 0, 0, 0, 0, 0, 0, 0, 0, 0, 0, 0, 0, 0, 0, 0, 0, 0, 0, 0, 0, 0, 0, 0, 0, 0, 0, 0, 0, 0, 0, 0, 0, 0, 0, 1, 0, 0, 0, 0, 0, 0, 0, 0, 0, 0, 0, 0, 0, 0, 0, 0, 0, 0, 0, 0, 0, 0, 0, 0, 0, 0, 0, 0, 0, 0, 0, 0, 0, 0, 0, 0, 0, 0, 0, 0, 0, 0, 0, 0, 0, 0, 0, 0, 0, 0, 0, 0, 0, 0, 0, 0, 0, 0, 0, 0, 0, 0, 0, 0, 0, 0, 0, 0, 0, 0, 0, 0, 0, 0, 0, 0, 0, 0, 0, 0, 0, 0, 0, 0, 0, 0, 0, 0, 0, 0, 0, 0, 0, 0, 0, 0, 0, 0, 0, 0, 0, 0, 0, 0, 0, 0, 0, 0, 1, 0, 0, 0, 0, 0, 0, 0, 0, 0, 0, 0, 0, 0, 0, 0, 0, 0, 0, 0, 0, 0, 0, 0, 0, 0, 0, 0, 0, 0, 0, 0, 0, 0, 0, 0, 0, 0, 0, 0, 0, 0, 0, 0, 0, 0, 0, 0, 0, 0, 0, 0, 0, 0, 0, 0, 0, 0, 0, 0, 0, 0, 0, 0, 0, 0, 0, 0, 0, 0, 0, 0, 0, 0, 0, 0, 0, 0, 0, 0, 0, 0, 0, 0, 0, 0, 0, 0, 0, 0, 0, 0, 0, 0, 0, 0, 0, 1, 0, 0, 0, 0, 0, 0, 0, 0, 0, 0, 0, 0, 0, 0, 0, 0, 0, 0, 0, 0, 0, 0, 0, 0, 0, 0, 0, 0, 0, 0, 0, 0, 0, 0, 0, 0, 0, 0, 0, 0, 0, 0, 0, 0, 0, 0, 0, 0, 0, 0, 0, 0, 0, 0, 0, 0, 0, 0, 0, 0, 0, 0, 0, 0, 0, 0, 0, 0, 0, 0, 0, 0, 0, 0, 0, 0, 0, 0, 0, 0, 0, 0, 0, 0, 0, 0, 0, 0, 0, 0, 0, 0, 0, 0, 0, 0, 0, 0, 0, 0, 0, 1, 0, 0, 0, 0, 0, 0, 0, 0, 0, 0, 0, 0, 0, 0, 0, 0, 0, 0, 0, 0, 0, 0, 0, 0, 0, 0, 0, 0, 0, 0, 0, 0, 0, 0, 0, 0, 0, 0, 0, 0, 0, 0, 0, 0, 0, 0, 0, 0, 0, 0, 0, 0, 0, 0, 0, 0, 0, 0, 0, 0, 0, 0, 0, 0, 0, 0, 0, 0, 0, 0, 0, 0, 0, 0, 0, 0, 0, 0, 0, 0, 0, 0, 0, 0, 0, 0, 0, 0, 0, 0, 0, 0, 0, 0, 0, 0, 0, 1, 0, 0, 0, 0, 0, 0, 0, 0, 0, 0, 0, 0, 0, 0, 0, 0, 0, 0, 0, 0, 0, 0, 0, 0, 0, 0, 0, 0, 0, 0, 0, 0, 0, 0, 0, 0, 0, 0, 0, 0, 0, 0, 0, 0, 0, 0, 0, 0, 0, 0, 0, 0, 0, 0, 0, 0, 0, 0, 0, 0, 0, 0, 0, 0, 0, 0, 0, 0, 0, 0, 0, 0, 0, 0, 0, 0, 0, 0, 0, 0, 0, 0, 0, 0, 0, 0, 0, 0, 0, 0, 0, 0, 0, 0, 0, 0, 0, 0, 0, 0, 0, 0, 0, 0, 0, 0, 0, 1, 0, 0, 0, 0, 0, 0, 0, 0, 0, 0, 0, 0, 0, 0, 0, 0, 0, 0, 0, 0, 0, 0, 0, 0, 0, 0, 0, 0, 0, 0, 0, 0, 0, 0, 0, 0, 0, 0, 0, 0, 0, 0, 0, 0, 0, 0, 0, 0, 0, 0, 0, 0, 0, 0, 0, 0, 0, 0, 0, 0, 0, 0, 0, 0, 0, 0, 0, 0, 0, 0, 0, 0, 0, 0, 0, 0, 0, 0, 0, 0, 0, 0, 0, 0, 0, 0, 0, 0, 0, 0, 0, 0, 0, 0, 0, 0, 0, 0, 0, 0, 0, 1, 0, 0, 0, 0, 0, 0, 0, 0, 0, 0, 0, 0, 0, 0, 0, 0, 0, 0, 0, 0, 0, 0, 0, 0, 0, 0, 0, 0, 0, 0, 0, 0, 0, 0, 0, 0, 0, 0, 0, 0, 0, 0, 0, 0, 0, 0, 0, 0, 0, 0, 0, 0, 0, 0, 0, 0, 0, 0, 0, 0, 0, 0, 0, 0, 0, 0, 0, 0, 0, 0, 0, 0, 0, 0, 0, 0, 0, 0, 0, 0, 0, 0, 0, 0, 0, 0, 0, 0, 0, 0, 0, 0, 0, 0, 0, 0, 0, 0, 0, 0, 0, 0, 0, 0, 0, 0, 0, 0, 0, 1, 0, 0, 0, 0, 0, 0, 0, 0, 0, 0, 0, 0, 0, 0, 0, 0, 0, 0, 0, 0, 0, 0, 0, 0, 0, 0, 0, 0, 0, 0, 0, 0, 0, 0, 0, 0, 0, 0, 0, 0, 0, 0, 0, 0, 0, 0, 0, 0, 0, 0, 0, 0, 0, 0, 0, 0, 0, 0, 0, 0, 0, 0, 0, 0, 0, 0, 0, 0, 0, 0, 0, 0, 0, 0, 0, 0, 0, 0, 0, 0, 0, 0, 0, 0, 0, 0, 0, 0, 0, 0, 0, 0, 0, 0, 0, 0, 0, 0, 0, 0, 0, 0, 0, 0, 0, 0, 0, 0, 0, 0, 0, 0, 0, 1, 0, 0, 0, 0, 0, 0, 0, 0, 0, 0, 0, 0, 0, 0, 0, 0, 0, 0, 0, 0, 0, 0, 0, 0, 0, 0, 0, 0, 0, 0, 0, 0, 0, 0, 0, 0, 0, 0, 0, 0, 0, 0, 0, 0, 0, 0, 0, 0, 0, 0, 0, 0, 0, 0, 0, 0, 0, 0, 0, 0, 0, 0, 0, 0, 0, 0, 0, 0, 0, 0, 0, 0, 0, 0, 0, 0, 0, 0, 0, 0, 0, 0, 0, 0, 0, 0, 0, 0, 0, 0, 0, 0, 0, 0, 0, 0, 0, 1, 0, 0, 0]);
