graph_generation/data/sat/tcsp/1356872604_Delhi_IN_60_120_1_task_random.txt
96 230 53 66 15
1 72 92
1 96 51
2 96 98
3 85 72
3 86 76
4 42 10
4 57 35
5 87 9
6 55 201
6 89 52
7 66 40
7 91 39
7 95 78
8 31 28
8 33 20
9 39 109
10 75 137
11 16 58
11 32 16
11 33 13
12 20 58
12 43 57
13 21 49
13 80 151
13 85 51
14 64 42
14 71 91
15 22 49
15 41 53
15 80 9
16 18 53
17 12 160
17 19 63
18 9 100
19 17 63
19 20 160
19 22 52
20 12 58
20 19 160
20 24 22
21 13 49
21 22 159
21 24 31
22 15 49
22 19 52
22 21 159
23 25 168
23 75 32
23 76 32
24 20 22
24 21 31
24 26 49
25 23 168
25 48 151
25 49 36
25 50 27
26 24 49
26 43 80
26 85 81
27 59 9
27 60 50
27 63 59
28 44 30
28 61 32
28 63 31
29 38 87
30 44 28
30 59 24
30 63 30
31 8 28
31 32 21
31 37 127
32 11 16
32 31 21
32 68 85
33 9 214
33 11 13
34 71 34
34 82 90
35 37 86
35 86 87
36 40 43
37 31 127
37 35 86
37 38 25
37 86 43
38 29 87
38 37 25
38 95 32
39 62 18
40 36 43
40 62 184
40 90 26
41 15 53
41 72 37
41 96 5
42 4 10
42 17 59
42 84 88
43 8 254
43 26 80
44 28 30
44 30 28
45 46 28
45 70 27
46 45 28
46 78 65
47 48 67
47 50 55
47 78 66
48 25 151
48 47 67
48 64 65
49 25 36
49 87 150
50 25 27
50 47 55
50 53 45
51 55 9
51 83 190
52 10 67
52 61 104
53 50 45
53 56 57
53 79 65
54 69 25
55 5 7
55 51 9
55 88 51
56 53 57
56 60 59
56 76 64
57 58 71
58 6 20
59 27 9
59 30 24
60 27 50
60 56 59
61 28 32
61 52 104
61 76 47
62 39 18
62 40 184
62 67 153
63 27 59
63 28 31
63 30 30
64 14 42
64 48 65
65 66 55
65 67 62
65 68 18
66 7 40
66 65 55
66 67 108
66 68 112
67 62 153
67 65 62
67 66 108
68 32 85
68 65 18
68 66 112
69 54 25
69 79 95
70 45 27
70 77 72
71 14 91
71 34 34
71 74 27
72 1 92
72 41 37
72 84 39
73 74 156
73 81 65
74 71 27
74 73 156
75 23 32
75 49 169
76 23 32
76 56 64
76 61 47
77 70 72
77 78 50
77 79 51
78 46 65
78 47 66
78 77 50
79 53 65
79 69 95
79 77 51
80 13 151
80 15 9
81 73 65
81 82 67
81 84 78
82 34 90
82 81 67
82 83 92
83 42 137
83 82 92
84 42 88
84 72 39
84 81 78
85 3 72
85 13 51
85 26 81
86 3 76
86 35 87
86 37 43
87 51 7
88 89 201
89 6 52
89 88 201
90 40 26
90 91 39
91 7 39
91 90 39
91 92 46
92 91 46
92 93 111
93 92 111
93 94 37
93 95 37
94 93 37
95 7 78
95 38 32
95 93 37
96 1 51
96 2 98
96 41 5
6
7
9
10
16
19
32
33
39
41
53
59
73
91
93
